c --- [ banner ] -------------------------------------------------------------
c 
c CaDiCaL Radically Simplified CDCL SAT Solver
c Copyright (c) 2016-2021 A. Biere, M. Fleury, N. Froleyks
c 
c Version 1.5.2 a5f15211db36c3956764e18194dd5bd63bf3b5e6
c g++ (GCC) 9.3.0 -Wall -Wextra -O3 -DNDEBUG
c Fri Oct 21 01:27:37 EDT 2022 Linux gra-login3 3.10.0-1160.66.1.el7.x86_64 x86_64
c 
c --- [ limit ] --------------------------------------------------------------
c 
c setting conflict limit to 200000 conflicts (due to '200000')
c 
c --- [ parsing input ] ------------------------------------------------------
c 
c reading DIMACS file from '33.cubes4661.adj'
c opening file to read '33.cubes4661.adj'
c found 'p cnf 6160 1595475' header
c parsed 1595475 clauses in 19.21 seconds process time
c closing file '33.cubes4661.adj'
c after reading 1457566773 bytes 1390.0 MB
c 
c --- [ options ] ------------------------------------------------------------
c 
c all options are set to their default value
c 
c --- [ solving ] ------------------------------------------------------------
c 
c time measured in process time since initialization
c 
c  seconds    reductions  redundant   irredundant
c          MB     restarts       trail       variables
c            level   conflicts       glue         remaining
c 
c * 19.21 1375  0 0   0    0    0  0% 0 1595422 2401 39%
c { 21.16 1449  0 0   0    0    0  0% 0 1595422 2401 39%
c i 22.17 1468 964 0   1   25   22 39% 7 1595422 2400 39%
c i 23.49 1480 479 0   8   52   43 32% 16 1595422 2399 39%
c i 24.22 1485 283 0  11   95   71 28% 15 1595422 2398 39%
c i 25.09 1492 198 0  31  180  139 29% 40 1595422 2397 39%
c i 25.39 1492 177 0  37  211  160 28% 37 1595422 2385 39%
c i 25.45 1492 163 0  37  234  177 28% 36 1595422 2384 39%
c i 25.56 1492 162 0  37  239  181 28% 35 1595422 2383 39%
c i 25.94 1492 150 0  37  292  224 28% 34 1595422 2382 39%
c i 25.98 1492 150 0  37  304  232 28% 34 1595422 2380 39%
c - 29.53 1410 150 1  37  304  232 28% 34 207548 2380 39%
c i 29.67 1355 150 1  37  306  232 28% 34 207548 2378 39%
c i 29.86 1355 145 1  39  334  255 28% 36 207548 2377 39%
c i 29.92 1355 144 1  41  342  262 28% 36 207548 2376 39%
c i 30.45 1355 140 1  50  382  301 28% 36 207548 2375 39%
c i 30.65 1355 131 1  50  420  337 28% 34 207548 2374 39%
c i 30.66 1355 131 1  50  421  337 28% 34 207548 2373 39%
c i 30.70 1355 130 1  50  426  341 28% 34 207548 2372 39%
c i 30.84 1355 126 1  50  450  359 28% 33 207548 2371 38%
c 
c  seconds     reductions  redundant   irredundant
c          MB      restarts       trail       variables
c             level   conflicts       glue         remaining
c 
c i 30.92 1355 121 1  50  471  376 28% 32 207548 2370 38%
c i 30.99 1355 118 1  50  489  390 28% 31 207548 2369 38%
c i 31.10 1355 109 1  50  537  433 28% 30 207548 2368 38%
c i 31.11 1355 108 1  50  542  437 28% 30 207548 2367 38%
c i 31.13 1355 108 1  50  544  438 28% 30 207548 2366 38%
c i 31.18 1355 106 1  50  561  449 28% 30 207548 2365 38%
c i 31.22 1355 104 1  50  581  466 28% 29 207548 2364 38%
c i 31.25 1355 103 1  50  587  470 28% 29 207548 2363 38%
c i 31.45 1355 100 1  50  624  502 28% 29 207548 2362 38%
c i 31.47 1355 99 1  50  629  506 28% 28 207548 2361 38%
c i 31.52 1355 98 1  50  644  517 28% 28 207548 2360 38%
c i 31.55 1355 97 1  50  654  526 28% 28 207548 2359 38%
c i 31.59 1355 96 1  50  678  548 28% 28 207548 2358 38%
c i 32.19 1355 93 1  74  783  641 28% 31 207548 2357 38%
c i 32.25 1355 94 1  75  790  646 28% 31 207548 2355 38%
c i 32.27 1355 94 1  76  795  648 28% 31 207548 2352 38%
c i 32.61 1356 98 1  81  844  686 28% 31 207548 2351 38%
c i 32.74 1356 97 1  84  860  700 28% 31 207548 2350 38%
c i 32.81 1356 97 1  87  869  708 28% 31 207548 2349 38%
c i 32.89 1356 97 1  88  878  714 28% 31 207548 2348 38%
c 
c  seconds    reductions  redundant   irredundant
c          MB     restarts       trail       variables
c            level   conflicts       glue         remaining
c 
c i 32.92 1356 97 1  90  885  720 28% 31 207548 2347 38%
c i 33.07 1356 96 1  95  908  738 28% 32 207548 2346 38%
c } 33.82 1356 95 1 112 1001  820 28% 32 207548 2346 38%
c [ 33.82 1356  0 1 112 1001  820  0% 0 207548 2346 38%
c O 33.82 1356  0 1 112 1002  820 11% 0 207548 2346 38%
c i 33.82 1356  0 1 112 1002  820 11% 0 207548 2296 37%
c i 33.83 1356  1 1 112 1003  820 12% 0 207548 2288 37%
c i 34.08 1355 19 1 112 1049  847 26% 13 207548 2287 37%
c - 34.52 1439 21 2 112 1097  788 30% 16 206049 2287 37%
c i 34.69 1440 21 2 112 1275  900 32% 17 206049 2286 37%
c i 34.69 1440 21 2 112 1283  905 32% 17 206049 2285 37%
c i 34.74 1440 20 2 112 1376  972 32% 17 206049 2284 37%
c i 34.74 1440 20 2 112 1378  973 32% 17 206049 2283 37%
c i 34.75 1440 20 2 112 1393  985 32% 17 206049 2282 37%
c i 34.76 1440 21 2 112 1411  997 32% 17 206049 2281 37%
c i 34.76 1440 21 2 112 1412  997 32% 17 206049 2280 37%
c i 34.88 1440 21 2 112 1707 1188 32% 17 206049 2279 37%
c i 34.90 1440 21 2 112 1784 1248 32% 17 206049 2278 37%
c i 34.94 1440 21 2 112 1868 1298 32% 17 206049 2277 37%
c - 35.33 1438 20 3 113 2279 1134 32% 17 206019 2277 37%
c 
c  seconds    reductions  redundant   irredundant
c          MB     restarts       trail       variables
c            level   conflicts       glue         remaining
c 
c i 35.65 1438 20 3 113 2524 1329 53% 17 206019 2276 37%
c i 35.79 1438 20 3 113 2750 1488 53% 17 206019 2275 37%
c i 35.82 1438 21 3 113 2801 1527 53% 17 206019 2274 37%
c i 35.82 1438 21 3 113 2802 1527 53% 17 206019 2273 37%
c i 35.83 1438 21 3 113 2820 1538 53% 17 206019 2272 37%
c ] 35.90 1438 21 3 113 3003 1663 53% 17 206019 2272 37%
c { 35.90 1438 95 3 113 3003 1663 75% 32 206019 2272 37%
c F 35.96 1438 95 3 113 3004 1664 75% 32 206019 2272 37%
c i 36.17 1438 81 3 113 3259 1861 70% 30 206019 2271 37%
c i 36.89 1438 87 3 131 3442 2016 67% 31 206019 2270 37%
c i 36.91 1438 87 3 132 3444 2017 67% 31 206019 2269 37%
c i 37.30 1438 86 3 139 3496 2063 66% 31 206019 2268 37%
c i 37.40 1438 85 3 143 3534 2096 65% 31 206019 2267 37%
c i 37.46 1438 85 3 144 3565 2124 65% 31 206019 2266 37%
c i 37.47 1438 84 3 144 3573 2131 65% 31 206019 2265 37%
c i 37.50 1438 82 3 144 3646 2190 64% 31 206019 2264 37%
c - 38.03 1357 80 4 156 3860 1737 62% 31 205984 2264 37%
c d 38.75 1357 61 4 157 5000 2525 56% 27 196129 2255 37%
c 2 38.79 1357 61 4 157 5000 3621 56% 27 196103 2255 37%
c p 42.07 1357 61 4 157 5000 7152 56% 27 196103 2222 36%
c 
c  seconds    reductions  redundant   irredundant
c          MB     restarts       trail       variables
c            level   conflicts       glue         remaining
c 
c d 42.34 1357 61 4 157 5000 7136 56% 27 196006 2221 36%
c - 43.18 1358 52 5 157 5832 2258 55% 25 196006 2221 36%
c # 43.26 1358 50 5 157 6005 2356 55% 24 196006 2221 36%
c } 43.65 1358 43 5 157 7005 2843 52% 22 196006 2221 36%
c [ 43.65 1358 21 5 157 7005 2843 53% 17 196006 2221 36%
c - 44.12 1358 20 6 158 8158 2408 52% 17 196006 2221 36%
c I 44.90 1358 21 6 159 10006 3747 51% 18 196006 2221 36%
c - 45.49 1359 24 7 160 10874 3149 50% 20 196006 2221 36%
c - 47.01 1359 29 8 162 13975 3522 50% 24 196006 2221 36%
c 2 47.47 1359 29 8 162 15003 5189 50% 25 196003 2221 36%
c p 48.44 1359 29 8 162 15003 8660 50% 25 196003 2221 36%
c ] 48.51 1359 29 8 162 15005 8662 50% 25 196003 2221 36%
c { 48.51 1359 43 8 162 15005 8662 52% 22 196003 2221 36%
c B 48.55 1359 43 8 162 15008 8664 52% 22 196003 2221 36%
c - 52.35 1359 42 9 343 17464 4359 50% 22 196003 2221 36%
c s 54.73 1359 42 9 489 18753 5210 50% 23 194086 2221 36%
c v 56.76 1359 42 9 489 18753 5210 50% 23 194071 2221 36%
c t 56.82 1359 42 9 489 18753 5195 50% 23 194059 2221 36%
c e 57.51 1360 42 9 489 18753 4896 50% 23 191639 942 15%
c s 57.59 1360 42 9 489 18753 4895 50% 23 191122 942 15%
c 
c  seconds    reductions   redundant   irredundant
c          MB     restarts        trail       variables
c            level    conflicts       glue        remaining
c 
c W 60.21 1361 40 9 635 21009 6520 69% 23 191122 942 15%
c - 60.37 1361 40 10 635 21343 4970 70% 23 191122 942 15%
c - 61.44 1361 35 11 708 25571 5114 71% 22 191122 942 15%
c F 62.51 1361 33 11 785 28011 6895 71% 22 191122 942 15%
c 2 65.70 1361 34 11 958 30008 8902 71% 22 191121 942 15%
c p 66.65 1361 34 11 958 30008 10381 71% 22 191121 942 15%
c - 67.09 1361 34 12 975 30183 5914 71% 22 191121 942 15%
c } 67.45 1361 34 12 977 31005 6453 71% 22 191121 942 15%
c [ 67.45 1361 29 12 977 31005 6453 121% 25 191121 942 15%
c - 68.26 1361 27 13 979 35182 5616 104% 24 191121 942 15%
c B 68.45 1361 27 13 980 36015 6110 102% 24 191121 942 15%
c - 69.67 1361 29 14 983 40565 6437 94% 25 191121 942 15%
c W 71.49 1361 31 14 984 45016 9408 89% 27 191121 942 15%
c ] 71.67 1361 31 14 984 45295 9573 89% 27 191121 942 15%
c 1 71.67 1361 31 14 984 45295 9573 89% 27 191121 942 15%
c 
c --- [ writing output ] -----------------------------------------------------
c 
c writing simplified CNF to DIMACS file 'simp/33.cubes4661.adj.simp1'
c * 71.67 1361 31 14 984 45295 9573 89% 27 191121 942 15%
c opening file to write 'simp/33.cubes4661.adj.simp1'
c writing 'p cnf 6160 191121' header
c closing file 'simp/33.cubes4661.adj.simp1'
c after writing 86812462 bytes 82.8 MB
c wrote 191121 clauses in 0.60 seconds process time
c 
c --- [ writing extension ] --------------------------------------------------
c 
c writing extension stack to 'simp/33.cubes4661.adj.ext1'
c opening file to write 'simp/33.cubes4661.adj.ext1'
c closing file 'simp/33.cubes4661.adj.ext1'
c after writing 80348 bytes 0.1 MB
c wrote 3628 witnesses in 0.00 seconds process time
c 
c --- [ result ] -------------------------------------------------------------
c 
s SATISFIABLE
c 
c --- [ run-time profiling ] -------------------------------------------------
c 
c process time taken by individual solving procedures
c (percentage relative to process time for solving)
c 
c        43.03   82.02% search
c        30.87   58.84% unstable
c        19.21   36.62% parse
c         9.51   18.13% stable
c         9.43   17.98% simplify
c         5.20    9.90% probe
c         2.07    3.94% vivify
c         1.94    3.70% lucky
c         1.28    2.45% elim
c         0.71    1.35% walk
c         0.17    0.32% subsume
c         0.08    0.15% ternary
c   =================================
c        52.46   72.59% solve
c 
c last line shows process time for solving
c (percentage relative to total process time)
c 
c --- [ statistics ] ---------------------------------------------------------
c 
c chronological:              7918        17.48 %  of conflicts
c conflicts:                 45295       863.41    per second
c decisions:                112953      2153.10    per second
c eliminated:                 1279        20.76 %  of all variables
c fixed:                       785        12.74 %  of all variables
c learned:                   44333        97.88 %  per conflict
c learned_lits:            9281483       100.00 %  learned literals
c minimized:                     0         0.00 %  learned literals
c shrunken:                6021258        64.87 %  learned literals
c minishrunken:             617973         6.66 %  learned literals
c propagations:            4304089         0.08 M  per second
c reduced:                   20950        46.25 %  per conflict
c rephased:                      9      5032.78    interval
c restarts:                    984        46.03    interval
c stabilizing:                   3        53.63 %  of conflicts
c substituted:                  10         0.16 %  of all variables
c subsumed:                  15949         0.48 %  of all clauses
c strengthened:               7684         0.23 %  of all clauses
c ternary:                    2545         0.62 %  of resolved
c vivified:                     28         0.00 %  of all clauses
c walked:                        2     22647.50    interval
c weakened:                   2843         2.97    average size
c 
c seconds are measured in process time for solving
c 
c --- [ resources ] ----------------------------------------------------------
c 
c total process time since initialization:        72.27    seconds
c total real time since initialization:           72.48    seconds
c maximum resident set size of process:         1522.17    MB
c 
c --- [ shutting down ] ------------------------------------------------------
c 
c exit 10
WARNING! DIMACS header mismatch: wrong number of variables.
============================[ Problem Statistics ]=============================
|                                                                             |
|  Number of variables:          3738                                         |
|  Number of clauses:          191123                                         |
|  Parse time:                   1.12 s                                       |
|  Simplification time:          0.02 s                                       |
|                                                                             |
============================[ Search Statistics ]====================================================
| Conflicts |          ORIGINAL         |          LEARNT          | Num Sols |      SUBGRAPHS      |
|           |    Vars  Clauses Literals |    Limit  Clauses Lit/Cl |          | Canonical Noncanon. |
=====================================================================================================
|       102 |    3645   191125 18736033 |     2000      102    132 |        0 |        16         2 |
|       253 |    3645   191126 18736050 |     2000      253    102 |        0 |        34         3 |
|       479 |    3645   191127 18736223 |     2000      479    106 |        0 |        42         4 |
|      1750 |    3645   192061 18752105 |     2000     1750     57 |        0 |       260       938 |
|      2468 |    3645   192273 18754701 |     3602     1470     43 |        0 |       355      1150 |
|      3308 |    3645   192354 18756229 |     3602     2310     62 |        0 |       415      1231 |
|      4600 |    3645   192507 18758712 |     3602     3602     84 |        0 |       484      1384 |
|      6433 |    3645   192632 18762578 |     5003     3636     77 |        0 |       531      1509 |
|      9305 |    3645   192942 18768650 |     6307     4012     58 |        0 |       618      1819 |
|     13667 |    3645   193460 18778239 |     7562     5229     59 |        0 |       783      2337 |
|     19574 |    3645   193601 18781038 |     8786     7360     76 |        0 |       843      2478 |
|     28752 |    3645   194130 18791180 |    11203     7155     60 |        0 |      1045      3007 |
|     43017 |    3645   195421 18809865 |    13603     9620     64 |        0 |      1323      4298 |
|     68442 |    3645   201385 18913087 |    17205    12847     50 |        0 |      2317     10262 |
|    102475 |    3645   206226 18992092 |    20813    19288     77 |        0 |      3018     15103 |
|    148876 |    3645   208838 19033819 |    25617    20493     68 |        0 |      3524     17715 |
|    216564 |    3645   210842 19062456 |    31612    18176     50 |        0 |      3989     19719 |
|    318997 |    3645   214749 19118387 |    37605    35602     89 |        0 |      4918     23626 |
|    477172 |    3645   225135 19255752 |    47227    26599     51 |        0 |      7507     34012 |
|    714616 |    3645   240896 19460394 |    58022    30038     40 |        2 |     10778     49771 |
|   1069475 |    3645   263230 19739984 |    70015    67890     84 |        2 |     14091     72105 |
|   1590334 |    3644   191845 16031546 |    86238    43572     45 |        9 |     18977     94169 |
=====================================================================================================
Number of solutions   : 10
Canonical subgraphs   : 22192          (17 /sec)
          order  3    : 1              (166667 /sec)
          order  4    : 1              (500000 /sec)
          order  5    : 1              (250000 /sec)
          order  6    : 1              (55556 /sec)
          order  7    : 1              (8850 /sec)
          order  8    : 2              (1363 /sec)
          order  9    : 7              (353 /sec)
          order 10    : 31             (112 /sec)
          order 11    : 182            (40 /sec)
          order 12    : 1215           (25 /sec)
          order 13    : 4229           (18 /sec)
          order 14    : 5105           (26 /sec)
          order 15    : 6229           (18 /sec)
          order 16    : 2787           (14 /sec)
          order 17    : 1204           (11 /sec)
          order 18    : 460            (9 /sec)
          order 19    : 253            (11 /sec)
          order 20    : 214            (11 /sec)
          order 21    : 259            (11 /sec)
          order 22    : 10             (1 /sec)
Noncanonical subgraphs: 111960         (432 /sec)
          order  3    : 0              (-nan /sec)
          order  4    : 0              (-nan /sec)
          order  5    : 0              (-nan /sec)
          order  6    : 0              (-nan /sec)
          order  7    : 0              (-nan /sec)
          order  8    : 0              (-nan /sec)
          order  9    : 0              (-nan /sec)
          order 10    : 0              (-nan /sec)
          order 11    : 0              (-nan /sec)
          order 12    : 0              (-nan /sec)
          order 13    : 19010          (2817 /sec)
          order 14    : 68182          (776 /sec)
          order 15    : 10276          (1052 /sec)
          order 16    : 13379          (117 /sec)
          order 17    : 673            (105 /sec)
          order 18    : 136            (34 /sec)
          order 19    : 3              (126 /sec)
          order 20    : 0              (-nan /sec)
          order 21    : 0              (-nan /sec)
Canonicity checking   : 1280.55 s
Noncanonicity checking: 258.879 s
Total canonicity time : 1539.43 s
database reductions   : 78
restarts              : 3836
conflicts             : 1966684        (865 /sec)
decisions             : 2594548        (0.00 % random) (1141 /sec)
propagations          : 85832018       (37743 /sec)
conflict literals     : 251461777      (50.98 % deleted)
actual reward         : 0.281545
Memory used           : 292.00 MB
CPU time              : 2274.14 s

UNSATISFIABLE
